
Gurobi 7.0.2 (linux64, Java) logging started Mon 20 May 2019 09:27:11 PM -03

Optimize a model with 40 rows, 40 columns and 120 nonzeros
Model has 792 quadratic objective terms
Variable types: 0 continuous, 40 integer (40 binary)
Coefficient statistics:
  Matrix range     [1e+00, 1e+00]
  Objective range  [0e+00, 0e+00]
  QObjective range [2e+00, 2e+01]
  Bounds range     [1e+00, 1e+00]
  RHS range        [2e+00, 2e+00]
Found heuristic solution: objective -0
Modified 40 Q diagonals
Presolve time: 0.00s
Presolved: 40 rows, 40 columns, 120 nonzeros
Presolved model has 794 quadratic objective terms
Variable types: 0 continuous, 40 integer (40 binary)

Root relaxation: objective 1.034642e+03, 41 iterations, 0.00 seconds

    Nodes    |    Current Node    |     Objective Bounds      |     Work
 Expl Unexpl |  Obj  Depth IntInf | Incumbent    BestBd   Gap | It/Node Time

     0     0 1034.64173    0   40   -0.00000 1034.64173      -     -    0s
H    0     0                      30.0000000 1034.64173  3349%     -    0s
H    0     0                     236.0000000 1034.64173   338%     -    0s
H    0     0                     312.0000000 1034.64173   232%     -    0s
     0     2 1034.64173    0   40  312.00000 1034.64173   232%     -    0s
H   31    34                     319.0000000  954.23552   199%   3.0    0s
H   33    35                     341.0000000  954.23552   180%   3.0    0s
H   35    37                     366.0000000  954.23552   161%   3.0    0s
 124570 52743  493.43870   48   18  366.00000  619.57442  69.3%   2.5    5s

Gurobi 7.0.2 (linux64, Java) logging started Mon 20 May 2019 09:27:24 PM -03

Optimize a model with 20 rows, 20 columns and 60 nonzeros
Model has 200 quadratic objective terms
Variable types: 0 continuous, 20 integer (20 binary)
Coefficient statistics:
  Matrix range     [1e+00, 1e+00]
  Objective range  [0e+00, 0e+00]
  QObjective range [2e+00, 2e+01]
  Bounds range     [1e+00, 1e+00]
  RHS range        [2e+00, 2e+00]
Found heuristic solution: objective -0
Modified 20 Q diagonals
Presolve time: 0.00s
Presolved: 20 rows, 20 columns, 60 nonzeros
Presolved model has 201 quadratic objective terms
Variable types: 0 continuous, 20 integer (20 binary)

Root relaxation: objective 2.688425e+02, 24 iterations, 0.00 seconds

    Nodes    |    Current Node    |     Objective Bounds      |     Work
 Expl Unexpl |  Obj  Depth IntInf | Incumbent    BestBd   Gap | It/Node Time

     0     0  268.84247    0   20   -0.00000  268.84247      -     -    0s
H    0     0                      51.0000000  268.84247   427%     -    0s
H    0     0                      95.0000000  268.84247   183%     -    0s
H    0     0                     116.0000000  268.84247   132%     -    0s
     0     2  268.84247    0   20  116.00000  268.84247   132%     -    0s
H   33    32                     118.0000000  230.89256  95.7%   2.8    0s
H   76    51                     125.0000000  210.85871  68.7%   2.9    0s

Explored 1027 nodes (2941 simplex iterations) in 0.04 seconds
Thread count was 4 (of 4 available processors)

Solution count 6: 125 118 116 ... -0
Pool objective bound 125

Optimal solution found (tolerance 1.00e-04)
Best objective 1.250000000000e+02, best bound 1.250000000000e+02, gap 0.0000%
